100
128
55
19
5
46
14
13
39
30
6
47
46
43
11
16
38
24
5
4
20
8
18
35
53
48
17
8
13
13
39
18
21
63
24
40
29
51
20
9
34
24
44
32
26
53
14
11
46
23
16
14
34
13
60
23
46
20
36
45
16
37
35
16
12
24
8
20
12
13
4
17
27
15
46
29
27
57
26
31
49
19
31
56
48
19
27
62
57
23
28
28
23
53
21
62
21
26
32
21
45
50